# petn crystal example

# To override default variables, do:
# mpirun -np 4 $LAMMPS/src/lmp_mac_mpi -in in.test -var nrep 2 -var nsteps 100

# user-adjustable variables

variable	nrep index 1           # integer linear scale
variable	nsteps index 10        # integer number of MD steps
variable	qeq_tol index 1.0e-6   # QEq tolerance

units		real
boundary        f f f

atom_style	charge

read_data 	data.petn_1x1x1_nopbc

replicate	${nrep} ${nrep} ${nrep}

velocity   	all create 10.0 9999

pair_style      reax/c NULL
pair_coeff      * * ffield.reax C H O N

compute reax all pair reax/c

variable eb  	 equal c_reax[1]
variable ea  	 equal c_reax[2]
variable elp 	 equal c_reax[3]
variable emol 	 equal c_reax[4]
variable ev 	 equal c_reax[5]
variable epen 	 equal c_reax[6]
variable ecoa 	 equal c_reax[7]
variable ehb 	 equal c_reax[8]
variable et 	 equal c_reax[9]
variable eco 	 equal c_reax[10]
variable ew 	 equal c_reax[11]
variable ep 	 equal c_reax[12]
variable efi 	 equal c_reax[13]
variable eqeq 	 equal c_reax[14]

neighbor	2.5 bin
neigh_modify	every 10 delay 0 check no

fix		1 all nve
fix             2 all qeq/reax 1 0.0 10.0 ${qeq_tol} reax/c

thermo		10
thermo_style 	custom step temp epair etotal press &
		v_eb v_ea v_elp v_emol v_ev v_epen v_ecoa &
		v_ehb v_et v_eco v_ew v_ep v_efi v_eqeq

timestep	1.0

dump		1 all cfg 10 *.cfg mass type xs ys zs q vx vy vz fx fy fz
dump_modify	1 append yes element C H O N

run ${nsteps}
