dimension          2

# 1) Initialization
# -----------------
# set parameters that need to be defined before atoms are created or read-in from a file.
# e.g., units, dimension, newton, processors, boundary, atom_style, atom_modify.

# problem geometry
variable           lxtmp equal 3.141592
variable           ly equal 3.141592
variable           r equal 1.5

# discretization 
variable           N equal 50
variable           dx equal ${ly}/${N}
variable           lx equal round(${lxtmp}/${dx})*${dx}

# box domain
variable           xmin equal -${lx}
variable           xmax equal  ${lx}
variable           ymin equal -${ly}
variable           ymax equal  ${ly}
variable           zmin equal -${dx}/2.0
variable           zmax equal  ${dx}/2.0

# smoothing length
variable           h  equal 1.5*${dx}
variable           cut equal 3.0*${h} 

# flow parameters
variable           Umax equal 10.0
variable           Umin equal 1.0

variable           tstep equal 0.1*${dx}/${Umax}
variable           tmin equal 0.1*${dx}/${Umax}
variable           tmax equal 0.1*${dx}/${Umin}

variable           tfinal equal 1.0
variable           nrun equal ${tfinal}/${tstep}

# boundary and timestep
newton             off
units              si
boundary           p p p

# skin setup; not really used
variable           delay equal 0

# atom
atom_style         isph

print              "----------------"
print              "N = ${N}"
print              "dx = ${dx}"
print              "h = ${h}"
print              "tstep = ${tstep}"
print              "tfinal = ${tfinal}"
print              "nrun = ${nrun}"
print              "----------------"  

# 2) Atom definition
# ------------------
# 1. There are 3 ways to define atoms in LAMMPS. 
# - read them in from a data or 
# - restart file via the read_data or 
# - read_restart commands. 
# These files can contain molecular topology information. 
#
# Or create atoms on a lattice (with no molecular topology). 
# e.g., lattice, region, create_box, create_atoms. 
# The entire set of atoms can be duplicated to make a larger simulation using the replicate command. 

lattice            hex ${dx} origin 0.5 0.5 0.

#region            name   block       xlo      xhi        ylo       yhi        zlo       zhi units box
region             box    block ${xmin} ${xmax} ${ymin} ${ymax}  ${zmin} ${zmax} units box

create_box         2 box
create_atoms       1 region box

# 3) Settings
# -----------
# Once atoms and molecular topology are defined, a variety of settings can be specified: 
# force field coefficients, simulation parameters, output options, etc.
#
# Force field coefficients are set by these commands (they can also be set in the read-in files): 
# pair_coeff, bond_coeff, angle_coeff, dihedral_coeff, improper_coeff, kspace_style, 
# dielectric, special_bonds.
#
# Various simulation parameters are set by these commands: 
# neighbor, neigh_modify, group, timestep, reset_timestep, run_style, min_style, min_modify.
#
# Fixes impose a variety of boundary conditions, time integration, and diagnostic options. 
# The fix command comes in many flavors.
#
# Various computations can be specified for execution during a simulation using the compute, 
# compute_modify, and variable commands.
#
# Output options are set by the thermo, dump, and restart commands. 

neighbor           0.0 bin
neigh_modify       every 1 delay ${delay} check yes

pair_style         isph/corrected
pair_coeff         * * colloid-center.xml ${h} 

compute            status all isph/status colloid-center.txt
compute            divergence all isph/velocity_divergence

# adjust timestep according to max distance 
# # fix                1 all isph status 
# # fix                2 all isph/shift 0.01
# # fix                3 all dt/reset 1 ${tmin} ${tmax} ${dx}
# # fix                4 all isph/quit status ${tfinal}

# adjust timestep maintaining cfl number
fix                1 all isph status 0.1 ${dx} ${Umin}
fix                2 all isph/shift 0.01 0.0 ${cut}
fix                3 all isph/quit status ${tfinal}

# 4) Run a simulation
# -------------------
# A molecular dynamics simulation is run using the run command. 
# Energy minimization (molecular statics) is performed using the minimize command. 
# A parallel tempering (replica-exchange) simulation can be run using the temper command. 

variable           var_sphere atom ((x*x+y*y+z*z)<${r}*${r})

group              solid variable var_sphere
group              fluid subtract all solid

set                group fluid type 1
set                group solid type 2

set                group solid isph_density 1000.0
set                group fluid isph_density 1.0
set                group all isph_viscosity 0.1


#
velocity           fluid set 0.0 0.0 0.0 units box
velocity           solid set 0.0 0.0 0.0 units box 

#
timestep           ${tstep}  

#
variable           dumpfreq equal 10

dump               dump all custom ${dumpfreq} colloid-center-2d.dump id type x y z vx vy pressure type c_divergence
dump_modify        dump flush yes    

run                ${nrun}