dimension          2


# 1) Initialization
# -----------------
# set parameters that need to be defined before atoms are created or read-in from a file.
# e.g., units, dimension, newton, processors, boundary, atom_style, atom_modify.

variable           l equal 0.5
variable           r equal 0.2
variable           inlet equal 0.3

# discretization
variable           N equal 36
variable           dx equal ${l}/${N}

variable           lbox  equal ${l}

# box domain
variable           xmin equal -2*${lbox}
variable           xmax equal  2*${lbox}
variable           ymin equal -${lbox}
variable           ymax equal  ${lbox}

# smoothing length
variable           h equal 1.2*${dx}

# set the box
variable           zmin equal -${dx}/2.0
variable           zmax equal  ${dx}/2.0

# flow parameters
variable           Umax equal 1.0

variable           tstep equal 1.0*${dx}/${Umax}
variable           tfinal equal 20.0
variable           nrun equal ${tfinal}/${tstep}

newton             off
units              si
boundary           p p p

# skin setup; not really use
variable           delay equal 0

# atom
atom_style         isph

print              "----------------"
print              "N = ${N}"
print              "dx = ${dx}"
print              "h = ${h}"
print              "tstep = ${tstep}"
print              "tfinal = ${tfinal}"
print              "nrun = ${nrun}"
print              "----------------"

# 2) Atom definition
# ------------------
# 1. There are 3 ways to define atoms in LAMMPS.
# - read them in from a data or
# - restart file via the read_data or
# - read_restart commands.
# These files can contain molecular topology information.
#
# Or create atoms on a lattice (with no molecular topology).
# e.g., lattice, region, create_box, create_atoms.
# The entire set of atoms can be duplicated to make a larger simulation using the replicate command.

##############################################################################
# comment lattice, region, create_box, create_atoms if you want to read_restart

lattice            sq ${dx} origin 0.5 0.5 0.
#lattice                   hex ${dx} origin 0.5 0.5 0.

#region            name   block       xlo      xhi        ylo       yhi        zlo       zhi units box
region             box    block ${xmin} ${xmax} ${ymin} ${ymax}  ${zmin} ${zmax} units box

create_box         3 box
create_atoms       1 region box

# 3) Settings
# -----------
# Once atoms and molecular topology are defined, a variety of settings can be specified:
# force field coefficients, simulation parameters, output options, etc.
#
# Force field coefficients are set by these commands (they can also be set in the read-in files):
# pair_coeff, bond_coeff, angle_coeff, dihedral_coeff, improper_coeff, kspace_style,
# dielectric, special_bonds.
#
# Various simulation parameters are set by these commands:
# neighbor, neigh_modify, group, timestep, reset_timestep, run_style, min_style, min_modify.
#
# Fixes impose a variety of boundary conditions, time integration, and diagnostic options.
# The fix command comes in many flavors.
#
# Various computations can be specified for execution during a simulation using the compute,
# compute_modify, and variable commands.
#
# Output options are set by the thermo, dump, and restart commands.

neighbor           0.0 bin
neigh_modify       every 1 delay ${delay} check yes

pair_style         isph/corrected
pair_coeff         * * inlet-concentration.xml ${h}

# default initialize concentration[0]
compute            species all isph/concentration 0

# apply fix for type 1 particles: psi field particles
fix                1 all isph
fix                2 all isph/shift 0.04 

variable           buf0 equal ${xmin}+3*${dx}
variable           buf1 equal ${buf0}+6*${dx}
variable           buf2 equal ${buf1}+6*${dx}
variable           buf3 equal ${buf2}+4*${dx}

## compute_concentration_name time_begin time_end(-1:infinite) concentration_value xmin xmax ymin ymax zmin zmax type(can list multiple)
fix                3 all isph/modify/type 1 3 ${xmin} ${buf2} ${ymin} ${ymax} ${zmin} ${zmax} 
fix                4 all isph/modify/concentration species 0 -1 0.0 ${xmin} ${buf2} ${ymin} ${ymax} ${zmin} ${zmax} 3
fix                5 all isph/modify/concentration species 0 -1 1.0 ${buf1} ${buf2} -${inlet} ${inlet} ${zmin} ${zmax} 3
fix                6 all isph/modify/type 3 1 ${buf2} ${buf3} ${ymin} ${ymax} ${zmin} ${zmax} 

# 4) Run a simulation
# -------------------
# A molecular dynamics simulation is run using the run command.
# Energy minimization (molecular statics) is performed using the minimize command.
# A parallel tempering (replica-exchange) simulation can be run using the temper command.


variable           ball atom ((x*x+y*y+z*z)<${r}*${r})

group              solid variable ball
group              fluid subtract all solid

set                group fluid type 1
set                group solid type 2

set                group solid isph_density 1.0
set                group fluid isph_density 1.0
set                group all isph_viscosity 1.0
set                group all isph_pressure 0.0

velocity           all set 0.0 0.0 0.0 units box

#
timestep           ${tstep}

# no need to dump out
variable           dumpfreq equal 10
dump               dump all custom ${dumpfreq} inlet-concentration-2d.dump id type x y z vx vy pressure type c_species
dump_modify        dump flush yes

run                ${nrun}
